
Gurobi 10.0.0 (win64, C++) logging started Fri Nov 24 00:15:35 2023

Set parameter TokenServer to value "141.30.89.215"
Warning: Gurobi version mismatch between C++ 10.0.3 and C library 10.0.0
Set parameter Threads to value 8
Set parameter LazyConstraints to value 1
Set parameter PreCrush to value 1
Set parameter TimeLimit to value 28800
Set parameter SolutionLimit to value 10000
Gurobi Optimizer version 10.0.0 build v10.0.0rc2 (win64)

CPU model: AMD EPYC 7513 32-Core Processor, instruction set [SSE2|AVX|AVX2]
Thread count: 16 physical cores, 16 logical processors, using up to 8 threads

Optimize a model with 254 rows, 484 columns and 1386 nonzeros
Model fingerprint: 0xeda96254
Variable types: 0 continuous, 484 integer (484 binary)
Coefficient statistics:
  Matrix range     [1e+00, 1e+00]
  Objective range  [3e+00, 8e+01]
  Bounds range     [1e+00, 1e+00]
  RHS range        [1e+00, 6e+00]

User MIP start produced solution with objective 409.89 (0.00s)
Loaded user MIP start with objective 409.89

Presolve removed 1 rows and 24 columns
Presolve time: 0.00s
Presolved: 253 rows, 460 columns, 1338 nonzeros
Variable types: 0 continuous, 460 integer (460 binary)

Root relaxation: objective 3.091569e+02, 78 iterations, 0.00 seconds (0.00 work units)

    Nodes    |    Current Node    |     Objective Bounds      |     Work
 Expl Unexpl |  Obj  Depth IntInf | Incumbent    BestBd   Gap | It/Node Time

     0     0  309.15693    0   20  409.89002  309.15693  24.6%     -    0s
     0     0  347.65293    0   22  409.89002  347.65293  15.2%     -    0s
     0     0  360.16076    0   47  409.89002  360.16076  12.1%     -    1s
     0     0  366.52715    0   24  409.89002  366.52715  10.6%     -    1s
     0     0  370.70101    0   24  409.89002  370.70101  9.56%     -    1s
     0     0  371.94658    0   42  409.89002  371.94658  9.26%     -    1s
     0     0  372.28988    0   23  409.89002  372.28988  9.17%     -    1s
H    0     0                     397.6268554  372.28988  6.37%     -    1s
     0     0  372.83970    0    8  397.62686  372.83970  6.23%     -    1s
     0     0  372.83970    0   36  397.62686  372.83970  6.23%     -    1s
     0     0  374.45948    0    -  397.62686  374.45948  5.83%     -    1s
     0     0  376.20840    0   14  397.62686  376.20840  5.39%     -    1s
     0     0  376.30384    0   50  397.62686  376.30384  5.36%     -    1s
     0     0  376.50912    0    -  397.62686  376.50912  5.31%     -    1s
     0     0  376.75918    0   50  397.62686  376.75918  5.25%     -    1s
     0     0  377.21129    0   37  397.62686  377.21129  5.13%     -    1s
     0     0  377.28218    0   51  397.62686  377.28218  5.12%     -    1s
     0     0  377.28218    0   34  397.62686  377.28218  5.12%     -    1s
     0     0  377.28218    0    -  397.62686  377.28218  5.12%     -    2s
     0     0  377.28218    0    -  397.62686  377.28218  5.12%     -    2s
     0     0  377.28218    0   22  397.62686  377.28218  5.12%     -    2s
     0     0  377.28218    0   16  397.62686  377.28218  5.12%     -    2s
H    0     0                     395.6358416  377.28218  4.64%     -    2s
     0     0  377.28218    0   48  395.63584  377.28218  4.64%     -    2s
     0     0  377.28218    0   49  395.63584  377.28218  4.64%     -    2s
     0     0  378.34290    0   35  395.63584  378.34290  4.37%     -    2s
     0     0  378.53916    0   53  395.63584  378.53916  4.32%     -    2s
*    0     0               0     379.4310956  379.43110  0.00%     -    2s

Cutting planes:
  User: 85
  Gomory: 3
  Zero half: 1
  Lazy constraints: 7

Explored 1 nodes (906 simplex iterations) in 2.62 seconds (0.13 work units)
Thread count was 8 (of 16 available processors)

Solution count 4: 379.431 395.636 397.627 409.89 

Optimal solution found (tolerance 1.00e-04)
Best objective 3.794310956208e+02, best bound 3.794310956208e+02, gap 0.0000%

User-callback calls 350, time in user-callback 2.40 sec
### START EXACT APPROACH ###
ProblemVariant: 5
### START PREPROCESSING ###
## Start infeasible path procedure ## 
Deleted arcs: 2
Infeasible tail paths: 0
Infeasible 2-node combinations: 1
## Start extended infeasible path procedure ##
Deleted arcs: 2
Infeasible tail paths: 0
Infeasible 2-node combinations: 1
## Start start solution procedure ##
Start solution with 5 Vehicles and total costs 409.89 in 1.15704 s.
### END PREPROCESSING ###
Route 0 0-8-6-3-4-11-13-0 : weight util 0.866667 | volume util 0.781267 | infeasible with packing heuristic | feasible with CP model
Route 1 0-10-1-2-5-7-9-0 : weight util 0.966667 | volume util 0.789778 | infeasible with packing heuristic | feasible with CP model
Route 2 0-12-15-18-20-17-0 : weight util 0.983333 | volume util 0.726644 | feasible with packing heuristic | feasible with CP model
Route 3 0-14-21-19-16-0 : weight util 0.933333 | volume util 0.637111 | feasible with packing heuristic | feasible with CP model
